# Pair Coeff

pair_coeff 	* * 0 0
pair_coeff 	5 5 0.05 1.6036
pair_coeff 	5 7 0.05 1.6036
pair_coeff 	7 7 0.05 1.6036
